Minimize
  0.0625 y_0 + 0.0476190476190476 y_1 + 0.0454545454545455 y_2
   + 0.0588235294117647 y_3 + 0.0454545454545455 y_4
   + 0.0769230769230769 y_5 + 0.0769230769230769 y_6 + 0.0625 y_7
   + 0.0434782608695652 y_8 + 0.2 y_9 + 0.0476190476190476 y_10
   + 0.1666666666666667 y_11 + 0.0588235294117647 y_12
   + 0.0833333333333333 y_13 + 0.0769230769230769 y_14
   + 0.0588235294117647 y_15 + 0.0526315789473684 y_16
   + 0.3333333333333333 y_17 + 0.0526315789473684 y_18 + 0.05 y_19
   + 0.0666666666666667 y_20 + 0.0526315789473684 y_21
   + 0.0555555555555556 y_22 + 0.1111111111111111 y_23 + 0.1 y_24
   + 0.0625 y_25 + 0.0666666666666667 y_26 + 0.05 y_27 + 0.04 y_28
   + 0.0555555555555556 y_29 + 0.0454545454545455 y_30
   + 0.0476190476190476 y_31 + 0.0434782608695652 y_32 + 0.05 y_33
   + 0.1 y_34 + 0.0714285714285714 y_35 + 0.05 y_36
   + 0.1111111111111111 y_37 + 0.0555555555555556 y_38
   + 0.0588235294117647 y_39 + 0.04 y_40 + 0.0526315789473684 y_41
   + 0.0714285714285714 y_42 + 0.1428571428571428 y_43
   + 0.0769230769230769 y_44 + 0.0476190476190476 y_45
   + 0.1666666666666667 y_46 + y_47 + 0.05 y_48 + 0.05 y_49
   - 4.692745597644304 Constant
Subject To
 c_0: y_43 = 1
 c_1_0: y_0 + y_15 + y_26 >= 1
 c_1_1: y_1 + y_27 + y_30 >= 1
 c_1_2: y_2 + y_31 + y_33 >= 1
 c_1_3: y_3 >= 1
 c_1_4: y_4 + y_45 >= 1
 c_1_5: y_5 + y_44 >= 1
 c_1_6: y_6 + y_14 + y_42 >= 1
 c_1_7: y_7 >= 1
 c_1_8: y_8 + y_40 >= 1
 c_1_9: y_9 + y_17 + y_46 >= 1
 c_1_10: y_10 >= 1
 c_1_11: y_11 + y_43 >= 1
 c_1_12: y_12 >= 1
 c_1_13: y_13 >= 1
 c_1_14: y_6 + y_14 + y_42 >= 1
 c_1_15: y_0 + y_15 + y_39 >= 1
 c_1_16: y_16 + y_38 + y_41 >= 1
 c_1_17: y_9 + y_17 + y_47 >= 1
 c_1_18: y_18 + y_27 + y_49 >= 1
 c_1_19: y_19 + y_45 >= 1
 c_1_20: y_20 + y_25 >= 1
 c_1_21: y_21 >= 1
 c_1_22: y_22 + y_25 + y_36 >= 1
 c_1_23: y_23 + y_37 >= 1
 c_1_24: y_24 + y_37 >= 1
 c_1_25: y_20 + y_22 + y_25 >= 1
 c_1_26: y_0 + y_26 >= 1
 c_1_27: y_1 + y_18 + y_27 + y_49 >= 1
 c_1_28: y_28 >= 1
 c_1_29: y_29 + y_38 >= 1
 c_1_30: y_1 + y_30 + y_32 >= 1
 c_1_31: y_2 + y_31 + y_33 + y_36 >= 1
 c_1_32: y_30 + y_32 >= 1
 c_1_33: y_2 + y_31 + y_33 + y_36 >= 1
 c_1_34: y_34 >= 1
 c_1_35: y_35 >= 1
 c_1_36: y_22 + y_31 + y_33 + y_36 + y_41 >= 1
 c_1_37: y_23 + y_24 + y_37 >= 1
 c_1_38: y_16 + y_29 + y_38 + y_41 >= 1
 c_1_39: y_15 + y_39 >= 1
 c_1_40: y_8 + y_40 >= 1
 c_1_41: y_16 + y_36 + y_38 + y_41 >= 1
 c_1_42: y_6 + y_14 + y_42 >= 1
 c_1_43: y_11 + y_43 >= 1
 c_1_44: y_5 + y_44 >= 1
 c_1_45: y_4 + y_19 + y_45 >= 1
 c_1_46: y_9 + y_46 >= 1
 c_1_47: y_17 + y_47 >= 1
 c_1_48: y_48 >= 1
 c_1_49: y_18 + y_27 + y_49 >= 1
Bounds
 Constant = 1
Binaries
 y_0 y_1 y_2 y_3 y_4 y_5 y_6 y_7 y_8 y_9 y_10 y_11 y_12 y_13 y_14 y_15 y_16
 y_17 y_18 y_19 y_20 y_21 y_22 y_23 y_24 y_25 y_26 y_27 y_28 y_29 y_30 y_31
 y_32 y_33 y_34 y_35 y_36 y_37 y_38 y_39 y_40 y_41 y_42 y_43 y_44 y_45 y_46
 y_47 y_48 y_49
End
